(set-info :smt-lib-version 2.6)
(set-logic QF_NIA)
(set-info :source |
Generated by: Cristina Borralleras, Daniel Larraz, Albert Oliveras, Enric Rodriguez-Carbonell, Albert Rubio
Generated on: 2017-04-27
Generator: VeryMax
Application: Termination proving
Target solver: barcelogic
|)
(set-info :license "https://creativecommons.org/licenses/by/4.0/")
(set-info :category "industrial")
(set-info :status unknown)
(declare-fun Nl2arg11 () Int)
(declare-fun Nl2arg21 () Int)
(declare-fun Nl2arg31 () Int)
(declare-fun Nl2arg41 () Int)
(declare-fun Nl2arg12 () Int)
(declare-fun Nl2arg22 () Int)
(declare-fun Nl2arg32 () Int)
(declare-fun Nl2arg42 () Int)
(declare-fun Nl2arg13 () Int)
(declare-fun Nl2arg23 () Int)
(declare-fun Nl2arg33 () Int)
(declare-fun Nl2arg43 () Int)
(declare-fun lam0n0 () Int)
(declare-fun lam0n1 () Int)
(declare-fun lam0n2 () Int)
(declare-fun lam0n3 () Int)
(declare-fun lam0n4 () Int)
(declare-fun lam0n5 () Int)
(declare-fun lam0n6 () Int)
(declare-fun UndefCntr0_CT () Int)
(declare-fun Nl2CT1 () Int)
(declare-fun Nl2CT2 () Int)
(declare-fun Nl2CT3 () Int)
(declare-fun UndefCntr0_arg1 () Int)
(declare-fun UndefCntr0_arg2 () Int)
(declare-fun UndefCntr0_arg3 () Int)
(declare-fun UndefCntr0_arg4 () Int)
(declare-fun UndefCntr0_undef9 () Int)
(declare-fun UndefCntr0_undef10 () Int)
(declare-fun UndefCntr0_undef11 () Int)
(declare-fun UndefCntr0_undef12 () Int)
(declare-fun lam1n0 () Int)
(declare-fun lam1n1 () Int)
(declare-fun lam1n2 () Int)
(declare-fun lam1n3 () Int)
(declare-fun lam1n4 () Int)
(declare-fun lam1n5 () Int)
(declare-fun lam1n6 () Int)
(declare-fun lam2n0 () Int)
(declare-fun lam2n1 () Int)
(declare-fun lam2n2 () Int)
(declare-fun lam2n3 () Int)
(declare-fun lam2n4 () Int)
(declare-fun lam2n5 () Int)
(declare-fun lam2n6 () Int)
(declare-fun lam3n0 () Int)
(declare-fun lam3n1 () Int)
(declare-fun lam3n2 () Int)
(declare-fun lam3n3 () Int)
(declare-fun lam3n4 () Int)
(declare-fun lam3n5 () Int)
(declare-fun lam3n6 () Int)
(declare-fun lam4n0 () Int)
(declare-fun lam4n1 () Int)
(declare-fun lam4n2 () Int)
(declare-fun lam4n3 () Int)
(declare-fun lam4n4 () Int)
(declare-fun lam4n5 () Int)
(declare-fun lam4n6 () Int)
(declare-fun UndefCntr1_CT () Int)
(declare-fun UndefCntr1_arg1 () Int)
(declare-fun UndefCntr1_arg2 () Int)
(declare-fun UndefCntr1_arg3 () Int)
(declare-fun UndefCntr1_arg4 () Int)
(declare-fun UndefCntr1_undef13 () Int)
(declare-fun UndefCntr1_undef14 () Int)
(declare-fun UndefCntr1_undef15 () Int)
(declare-fun UndefCntr1_undef16 () Int)
(declare-fun lam5n0 () Int)
(declare-fun lam5n1 () Int)
(declare-fun lam5n2 () Int)
(declare-fun lam5n3 () Int)
(declare-fun lam5n4 () Int)
(declare-fun lam5n5 () Int)
(declare-fun lam5n6 () Int)
(declare-fun lam6n0 () Int)
(declare-fun lam6n1 () Int)
(declare-fun lam6n2 () Int)
(declare-fun lam6n3 () Int)
(declare-fun lam6n4 () Int)
(declare-fun lam6n5 () Int)
(declare-fun lam6n6 () Int)
(declare-fun lam7n0 () Int)
(declare-fun lam7n1 () Int)
(declare-fun lam7n2 () Int)
(declare-fun lam7n3 () Int)
(declare-fun lam7n4 () Int)
(declare-fun lam7n5 () Int)
(declare-fun lam7n6 () Int)
(declare-fun lam8n0 () Int)
(declare-fun lam8n1 () Int)
(declare-fun lam8n2 () Int)
(declare-fun lam8n3 () Int)
(declare-fun lam8n4 () Int)
(declare-fun lam8n5 () Int)
(declare-fun lam8n6 () Int)
(declare-fun UndefCntr2_CT () Int)
(declare-fun UndefCntr2_arg1 () Int)
(declare-fun UndefCntr2_arg2 () Int)
(declare-fun UndefCntr2_arg3 () Int)
(declare-fun UndefCntr2_arg4 () Int)
(declare-fun UndefCntr2_undef17 () Int)
(declare-fun UndefCntr2_undef18 () Int)
(declare-fun UndefCntr2_undef19 () Int)
(declare-fun UndefCntr2_undef20 () Int)
(declare-fun lam9n0 () Int)
(declare-fun lam9n1 () Int)
(declare-fun lam9n2 () Int)
(declare-fun lam9n3 () Int)
(declare-fun lam9n4 () Int)
(declare-fun lam9n5 () Int)
(declare-fun lam9n6 () Int)
(declare-fun lam10n0 () Int)
(declare-fun lam10n1 () Int)
(declare-fun lam10n2 () Int)
(declare-fun lam10n3 () Int)
(declare-fun lam10n4 () Int)
(declare-fun lam10n5 () Int)
(declare-fun lam10n6 () Int)
(declare-fun lam11n0 () Int)
(declare-fun lam11n1 () Int)
(declare-fun lam11n2 () Int)
(declare-fun lam11n3 () Int)
(declare-fun lam11n4 () Int)
(declare-fun lam11n5 () Int)
(declare-fun lam11n6 () Int)
(declare-fun lam12n0 () Int)
(declare-fun lam12n1 () Int)
(declare-fun lam13n0 () Int)
(declare-fun lam13n1 () Int)
(declare-fun lam14n0 () Int)
(declare-fun lam14n1 () Int)
(declare-fun undef37 () Int)
(declare-fun undef5 () Int)
(declare-fun undef6 () Int)
(declare-fun undef7 () Int)
(declare-fun undef8 () Int)
(declare-fun FV_arg1_3 () Int)
(declare-fun FV_arg2_3 () Int)
(declare-fun FV_arg3_3 () Int)
(declare-fun FV_arg4_3 () Int)
(declare-fun lam15n0 () Int)
(declare-fun lam15n1 () Int)
(declare-fun lam15n2 () Int)
(declare-fun lam15n3 () Int)
(declare-fun lam16n0 () Int)
(declare-fun lam16n1 () Int)
(declare-fun lam16n2 () Int)
(declare-fun lam16n3 () Int)
(declare-fun UndefDef0undef9_CT () Int)
(declare-fun UndefDef0undef9_arg1 () Int)
(declare-fun UndefDef0undef9_arg2 () Int)
(declare-fun UndefDef0undef9_arg3 () Int)
(declare-fun UndefDef0undef9_arg4 () Int)
(declare-fun lam17n0 () Int)
(declare-fun lam17n1 () Int)
(declare-fun lam17n2 () Int)
(declare-fun lam17n3 () Int)
(declare-fun lam18n0 () Int)
(declare-fun lam18n1 () Int)
(declare-fun lam18n2 () Int)
(declare-fun lam18n3 () Int)
(declare-fun lam19n0 () Int)
(declare-fun lam19n1 () Int)
(declare-fun lam19n2 () Int)
(declare-fun lam19n3 () Int)
(declare-fun lam20n0 () Int)
(declare-fun lam20n1 () Int)
(declare-fun lam20n2 () Int)
(declare-fun lam20n3 () Int)
(declare-fun UndefDef1undef13_CT () Int)
(declare-fun UndefDef1undef13_arg1 () Int)
(declare-fun UndefDef1undef13_arg2 () Int)
(declare-fun UndefDef1undef13_arg3 () Int)
(declare-fun UndefDef1undef13_arg4 () Int)
(declare-fun lam21n0 () Int)
(declare-fun lam21n1 () Int)
(declare-fun lam21n2 () Int)
(declare-fun lam21n3 () Int)
(declare-fun lam22n0 () Int)
(declare-fun lam22n1 () Int)
(declare-fun lam22n2 () Int)
(declare-fun lam22n3 () Int)
(declare-fun lam23n0 () Int)
(declare-fun lam23n1 () Int)
(declare-fun lam23n2 () Int)
(declare-fun lam23n3 () Int)
(declare-fun lam24n0 () Int)
(declare-fun lam24n1 () Int)
(declare-fun lam24n2 () Int)
(declare-fun lam24n3 () Int)
(declare-fun UndefDef2undef17_CT () Int)
(declare-fun UndefDef2undef17_arg1 () Int)
(declare-fun UndefDef2undef17_arg2 () Int)
(declare-fun UndefDef2undef17_arg3 () Int)
(declare-fun UndefDef2undef17_arg4 () Int)
(declare-fun lam25n0 () Int)
(declare-fun lam25n1 () Int)
(declare-fun lam25n2 () Int)
(declare-fun lam25n3 () Int)
(declare-fun lam26n0 () Int)
(declare-fun lam26n1 () Int)
(declare-fun lam26n2 () Int)
(declare-fun lam26n3 () Int)
(declare-fun lam27n0 () Int)
(declare-fun lam27n1 () Int)
(declare-fun lam27n2 () Int)
(declare-fun lam27n3 () Int)
(declare-fun FV_arg1_4 () Int)
(declare-fun FV_arg2_4 () Int)
(declare-fun FV_arg3_4 () Int)
(declare-fun FV_arg4_4 () Int)
(declare-fun FV_undef9_4 () Int)
(declare-fun FV_undef13_4 () Int)
(declare-fun FV_undef17_4 () Int)
(assert ( and ( <= ( - 1 ) Nl2arg11 ) ( <= Nl2arg11 1 ) ( <= ( - 1 ) Nl2arg21 ) ( <= Nl2arg21 1 ) ( <= ( - 1 ) Nl2arg31 ) ( <= Nl2arg31 1 ) ( <= ( - 1 ) Nl2arg41 ) ( <= Nl2arg41 1 ) ( <= ( - 1 ) Nl2arg12 ) ( <= Nl2arg12 1 ) ( <= ( - 1 ) Nl2arg22 ) ( <= Nl2arg22 1 ) ( <= ( - 1 ) Nl2arg32 ) ( <= Nl2arg32 1 ) ( <= ( - 1 ) Nl2arg42 ) ( <= Nl2arg42 1 ) ( <= ( - 1 ) Nl2arg13 ) ( <= Nl2arg13 1 ) ( <= ( - 1 ) Nl2arg23 ) ( <= Nl2arg23 1 ) ( <= ( - 1 ) Nl2arg33 ) ( <= Nl2arg33 1 ) ( <= ( - 1 ) Nl2arg43 ) ( <= Nl2arg43 1 ) ))
(assert ( or ( and ( >= lam0n0 0 ) ( >= lam0n1 0 ) ( >= lam0n2 0 ) ( >= lam0n3 0 ) ( >= lam0n4 0 ) ( >= lam0n5 0 ) ( >= lam0n6 0 ) ( > ( + ( * 2 lam0n1 ) ( * 3 lam0n2 ) ( * UndefCntr0_CT lam0n3 ) ( * Nl2CT1 lam0n4 ) ( * Nl2CT2 lam0n5 ) ( * Nl2CT3 lam0n6 ) ( - 1 ) ) 0 ) ( = ( + ( * ( - 1 ) lam0n1 ) ( * ( - 1 ) lam0n2 ) ( * UndefCntr0_arg1 lam0n3 ) ( * Nl2arg11 lam0n4 ) ( * Nl2arg12 lam0n5 ) ( * Nl2arg13 lam0n6 ) ) 0 ) ( = ( + ( * UndefCntr0_arg2 lam0n3 ) ( * Nl2arg21 lam0n4 ) ( * Nl2arg22 lam0n5 ) ( * Nl2arg23 lam0n6 ) ) 0 ) ( = ( + ( * UndefCntr0_arg3 lam0n3 ) ( * Nl2arg31 lam0n4 ) ( * Nl2arg32 lam0n5 ) ( * Nl2arg33 lam0n6 ) ) 0 ) ( = ( + ( * UndefCntr0_arg4 lam0n3 ) ( * Nl2arg41 lam0n4 ) ( * Nl2arg42 lam0n5 ) ( * Nl2arg43 lam0n6 ) ) 0 ) ( = ( + ( * ( - 1 ) lam0n0 ) ( * 1 lam0n1 ) ( * UndefCntr0_undef9 lam0n3 ) ) 0 ) ( = ( * UndefCntr0_undef10 lam0n3 ) 0 ) ( = ( * UndefCntr0_undef11 lam0n3 ) 0 ) ( = ( * UndefCntr0_undef12 lam0n3 ) 0 ) ) ( and ( >= lam1n0 0 ) ( >= lam1n1 0 ) ( >= lam1n2 0 ) ( >= lam1n3 0 ) ( >= lam1n4 0 ) ( >= lam1n5 0 ) ( >= lam1n6 0 ) ( > ( + ( * 2 lam1n1 ) ( * 3 lam1n2 ) ( * UndefCntr0_CT lam1n3 ) ( * Nl2CT1 lam1n4 ) ( * Nl2CT2 lam1n5 ) ( * Nl2CT3 lam1n6 ) ( - 1 ( + ( + ( + ( + Nl2CT1 ( * Nl2arg11 0 ) ) ( * Nl2arg21 0 ) ) ( * Nl2arg31 0 ) ) ( * Nl2arg41 0 ) ) ) ) 0 ) ( = ( + ( * ( - 1 ) lam1n1 ) ( * ( - 1 ) lam1n2 ) ( * UndefCntr0_arg1 lam1n3 ) ( * Nl2arg11 lam1n4 ) ( * Nl2arg12 lam1n5 ) ( * Nl2arg13 lam1n6 ) ) 0 ) ( = ( + ( * UndefCntr0_arg2 lam1n3 ) ( * Nl2arg21 lam1n4 ) ( * Nl2arg22 lam1n5 ) ( * Nl2arg23 lam1n6 ) ) 0 ) ( = ( + ( * UndefCntr0_arg3 lam1n3 ) ( * Nl2arg31 lam1n4 ) ( * Nl2arg32 lam1n5 ) ( * Nl2arg33 lam1n6 ) ) 0 ) ( = ( + ( * UndefCntr0_arg4 lam1n3 ) ( * Nl2arg41 lam1n4 ) ( * Nl2arg42 lam1n5 ) ( * Nl2arg43 lam1n6 ) ) 0 ) ( = ( + ( * ( - 1 ) lam1n0 ) ( * 1 lam1n1 ) ( * UndefCntr0_undef9 lam1n3 ) ( - ( + 0 ( * Nl2arg11 1 ) ) ) ) 0 ) ( = ( + ( * UndefCntr0_undef10 lam1n3 ) ( - ( + 0 ( * Nl2arg21 1 ) ) ) ) 0 ) ( = ( + ( * UndefCntr0_undef11 lam1n3 ) ( - ( + 0 ( * Nl2arg31 1 ) ) ) ) 0 ) ( = ( + ( * UndefCntr0_undef12 lam1n3 ) ( - ( + 0 ( * Nl2arg41 1 ) ) ) ) 0 ) ) ))
(assert ( or ( and ( >= lam0n0 0 ) ( >= lam0n1 0 ) ( >= lam0n2 0 ) ( >= lam0n3 0 ) ( >= lam0n4 0 ) ( >= lam0n5 0 ) ( >= lam0n6 0 ) ( > ( + ( * 2 lam0n1 ) ( * 3 lam0n2 ) ( * UndefCntr0_CT lam0n3 ) ( * Nl2CT1 lam0n4 ) ( * Nl2CT2 lam0n5 ) ( * Nl2CT3 lam0n6 ) ( - 1 ) ) 0 ) ( = ( + ( * ( - 1 ) lam0n1 ) ( * ( - 1 ) lam0n2 ) ( * UndefCntr0_arg1 lam0n3 ) ( * Nl2arg11 lam0n4 ) ( * Nl2arg12 lam0n5 ) ( * Nl2arg13 lam0n6 ) ) 0 ) ( = ( + ( * UndefCntr0_arg2 lam0n3 ) ( * Nl2arg21 lam0n4 ) ( * Nl2arg22 lam0n5 ) ( * Nl2arg23 lam0n6 ) ) 0 ) ( = ( + ( * UndefCntr0_arg3 lam0n3 ) ( * Nl2arg31 lam0n4 ) ( * Nl2arg32 lam0n5 ) ( * Nl2arg33 lam0n6 ) ) 0 ) ( = ( + ( * UndefCntr0_arg4 lam0n3 ) ( * Nl2arg41 lam0n4 ) ( * Nl2arg42 lam0n5 ) ( * Nl2arg43 lam0n6 ) ) 0 ) ( = ( + ( * ( - 1 ) lam0n0 ) ( * 1 lam0n1 ) ( * UndefCntr0_undef9 lam0n3 ) ) 0 ) ( = ( * UndefCntr0_undef10 lam0n3 ) 0 ) ( = ( * UndefCntr0_undef11 lam0n3 ) 0 ) ( = ( * UndefCntr0_undef12 lam0n3 ) 0 ) ) ( and ( >= lam2n0 0 ) ( >= lam2n1 0 ) ( >= lam2n2 0 ) ( >= lam2n3 0 ) ( >= lam2n4 0 ) ( >= lam2n5 0 ) ( >= lam2n6 0 ) ( > ( + ( * 2 lam2n1 ) ( * 3 lam2n2 ) ( * UndefCntr0_CT lam2n3 ) ( * Nl2CT1 lam2n4 ) ( * Nl2CT2 lam2n5 ) ( * Nl2CT3 lam2n6 ) ( - 1 ( + ( + ( + ( + Nl2CT2 ( * Nl2arg12 0 ) ) ( * Nl2arg22 0 ) ) ( * Nl2arg32 0 ) ) ( * Nl2arg42 0 ) ) ) ) 0 ) ( = ( + ( * ( - 1 ) lam2n1 ) ( * ( - 1 ) lam2n2 ) ( * UndefCntr0_arg1 lam2n3 ) ( * Nl2arg11 lam2n4 ) ( * Nl2arg12 lam2n5 ) ( * Nl2arg13 lam2n6 ) ) 0 ) ( = ( + ( * UndefCntr0_arg2 lam2n3 ) ( * Nl2arg21 lam2n4 ) ( * Nl2arg22 lam2n5 ) ( * Nl2arg23 lam2n6 ) ) 0 ) ( = ( + ( * UndefCntr0_arg3 lam2n3 ) ( * Nl2arg31 lam2n4 ) ( * Nl2arg32 lam2n5 ) ( * Nl2arg33 lam2n6 ) ) 0 ) ( = ( + ( * UndefCntr0_arg4 lam2n3 ) ( * Nl2arg41 lam2n4 ) ( * Nl2arg42 lam2n5 ) ( * Nl2arg43 lam2n6 ) ) 0 ) ( = ( + ( * ( - 1 ) lam2n0 ) ( * 1 lam2n1 ) ( * UndefCntr0_undef9 lam2n3 ) ( - ( + 0 ( * Nl2arg12 1 ) ) ) ) 0 ) ( = ( + ( * UndefCntr0_undef10 lam2n3 ) ( - ( + 0 ( * Nl2arg22 1 ) ) ) ) 0 ) ( = ( + ( * UndefCntr0_undef11 lam2n3 ) ( - ( + 0 ( * Nl2arg32 1 ) ) ) ) 0 ) ( = ( + ( * UndefCntr0_undef12 lam2n3 ) ( - ( + 0 ( * Nl2arg42 1 ) ) ) ) 0 ) ) ))
(assert ( or ( and ( >= lam0n0 0 ) ( >= lam0n1 0 ) ( >= lam0n2 0 ) ( >= lam0n3 0 ) ( >= lam0n4 0 ) ( >= lam0n5 0 ) ( >= lam0n6 0 ) ( > ( + ( * 2 lam0n1 ) ( * 3 lam0n2 ) ( * UndefCntr0_CT lam0n3 ) ( * Nl2CT1 lam0n4 ) ( * Nl2CT2 lam0n5 ) ( * Nl2CT3 lam0n6 ) ( - 1 ) ) 0 ) ( = ( + ( * ( - 1 ) lam0n1 ) ( * ( - 1 ) lam0n2 ) ( * UndefCntr0_arg1 lam0n3 ) ( * Nl2arg11 lam0n4 ) ( * Nl2arg12 lam0n5 ) ( * Nl2arg13 lam0n6 ) ) 0 ) ( = ( + ( * UndefCntr0_arg2 lam0n3 ) ( * Nl2arg21 lam0n4 ) ( * Nl2arg22 lam0n5 ) ( * Nl2arg23 lam0n6 ) ) 0 ) ( = ( + ( * UndefCntr0_arg3 lam0n3 ) ( * Nl2arg31 lam0n4 ) ( * Nl2arg32 lam0n5 ) ( * Nl2arg33 lam0n6 ) ) 0 ) ( = ( + ( * UndefCntr0_arg4 lam0n3 ) ( * Nl2arg41 lam0n4 ) ( * Nl2arg42 lam0n5 ) ( * Nl2arg43 lam0n6 ) ) 0 ) ( = ( + ( * ( - 1 ) lam0n0 ) ( * 1 lam0n1 ) ( * UndefCntr0_undef9 lam0n3 ) ) 0 ) ( = ( * UndefCntr0_undef10 lam0n3 ) 0 ) ( = ( * UndefCntr0_undef11 lam0n3 ) 0 ) ( = ( * UndefCntr0_undef12 lam0n3 ) 0 ) ) ( and ( >= lam3n0 0 ) ( >= lam3n1 0 ) ( >= lam3n2 0 ) ( >= lam3n3 0 ) ( >= lam3n4 0 ) ( >= lam3n5 0 ) ( >= lam3n6 0 ) ( > ( + ( * 2 lam3n1 ) ( * 3 lam3n2 ) ( * UndefCntr0_CT lam3n3 ) ( * Nl2CT1 lam3n4 ) ( * Nl2CT2 lam3n5 ) ( * Nl2CT3 lam3n6 ) ( - 1 ( + ( + ( + ( + Nl2CT3 ( * Nl2arg13 0 ) ) ( * Nl2arg23 0 ) ) ( * Nl2arg33 0 ) ) ( * Nl2arg43 0 ) ) ) ) 0 ) ( = ( + ( * ( - 1 ) lam3n1 ) ( * ( - 1 ) lam3n2 ) ( * UndefCntr0_arg1 lam3n3 ) ( * Nl2arg11 lam3n4 ) ( * Nl2arg12 lam3n5 ) ( * Nl2arg13 lam3n6 ) ) 0 ) ( = ( + ( * UndefCntr0_arg2 lam3n3 ) ( * Nl2arg21 lam3n4 ) ( * Nl2arg22 lam3n5 ) ( * Nl2arg23 lam3n6 ) ) 0 ) ( = ( + ( * UndefCntr0_arg3 lam3n3 ) ( * Nl2arg31 lam3n4 ) ( * Nl2arg32 lam3n5 ) ( * Nl2arg33 lam3n6 ) ) 0 ) ( = ( + ( * UndefCntr0_arg4 lam3n3 ) ( * Nl2arg41 lam3n4 ) ( * Nl2arg42 lam3n5 ) ( * Nl2arg43 lam3n6 ) ) 0 ) ( = ( + ( * ( - 1 ) lam3n0 ) ( * 1 lam3n1 ) ( * UndefCntr0_undef9 lam3n3 ) ( - ( + 0 ( * Nl2arg13 1 ) ) ) ) 0 ) ( = ( + ( * UndefCntr0_undef10 lam3n3 ) ( - ( + 0 ( * Nl2arg23 1 ) ) ) ) 0 ) ( = ( + ( * UndefCntr0_undef11 lam3n3 ) ( - ( + 0 ( * Nl2arg33 1 ) ) ) ) 0 ) ( = ( + ( * UndefCntr0_undef12 lam3n3 ) ( - ( + 0 ( * Nl2arg43 1 ) ) ) ) 0 ) ) ))
(assert ( or ( and ( >= lam4n0 0 ) ( >= lam4n1 0 ) ( >= lam4n2 0 ) ( >= lam4n3 0 ) ( >= lam4n4 0 ) ( >= lam4n5 0 ) ( >= lam4n6 0 ) ( > ( + ( * 2 lam4n1 ) ( * 3 lam4n2 ) ( * UndefCntr1_CT lam4n3 ) ( * Nl2CT1 lam4n4 ) ( * Nl2CT2 lam4n5 ) ( * Nl2CT3 lam4n6 ) ( - 1 ) ) 0 ) ( = ( + ( * ( - 1 ) lam4n1 ) ( * ( - 1 ) lam4n2 ) ( * UndefCntr1_arg1 lam4n3 ) ( * Nl2arg11 lam4n4 ) ( * Nl2arg12 lam4n5 ) ( * Nl2arg13 lam4n6 ) ) 0 ) ( = ( + ( * UndefCntr1_arg2 lam4n3 ) ( * Nl2arg21 lam4n4 ) ( * Nl2arg22 lam4n5 ) ( * Nl2arg23 lam4n6 ) ) 0 ) ( = ( + ( * UndefCntr1_arg3 lam4n3 ) ( * Nl2arg31 lam4n4 ) ( * Nl2arg32 lam4n5 ) ( * Nl2arg33 lam4n6 ) ) 0 ) ( = ( + ( * UndefCntr1_arg4 lam4n3 ) ( * Nl2arg41 lam4n4 ) ( * Nl2arg42 lam4n5 ) ( * Nl2arg43 lam4n6 ) ) 0 ) ( = ( + ( * ( - 1 ) lam4n0 ) ( * 1 lam4n1 ) ( * UndefCntr1_undef13 lam4n3 ) ) 0 ) ( = ( * UndefCntr1_undef14 lam4n3 ) 0 ) ( = ( * UndefCntr1_undef15 lam4n3 ) 0 ) ( = ( * UndefCntr1_undef16 lam4n3 ) 0 ) ) ( and ( >= lam5n0 0 ) ( >= lam5n1 0 ) ( >= lam5n2 0 ) ( >= lam5n3 0 ) ( >= lam5n4 0 ) ( >= lam5n5 0 ) ( >= lam5n6 0 ) ( > ( + ( * 2 lam5n1 ) ( * 3 lam5n2 ) ( * UndefCntr1_CT lam5n3 ) ( * Nl2CT1 lam5n4 ) ( * Nl2CT2 lam5n5 ) ( * Nl2CT3 lam5n6 ) ( - 1 ( + ( + ( + ( + Nl2CT1 ( * Nl2arg11 0 ) ) ( * Nl2arg21 0 ) ) ( * Nl2arg31 0 ) ) ( * Nl2arg41 0 ) ) ) ) 0 ) ( = ( + ( * ( - 1 ) lam5n1 ) ( * ( - 1 ) lam5n2 ) ( * UndefCntr1_arg1 lam5n3 ) ( * Nl2arg11 lam5n4 ) ( * Nl2arg12 lam5n5 ) ( * Nl2arg13 lam5n6 ) ) 0 ) ( = ( + ( * UndefCntr1_arg2 lam5n3 ) ( * Nl2arg21 lam5n4 ) ( * Nl2arg22 lam5n5 ) ( * Nl2arg23 lam5n6 ) ) 0 ) ( = ( + ( * UndefCntr1_arg3 lam5n3 ) ( * Nl2arg31 lam5n4 ) ( * Nl2arg32 lam5n5 ) ( * Nl2arg33 lam5n6 ) ) 0 ) ( = ( + ( * UndefCntr1_arg4 lam5n3 ) ( * Nl2arg41 lam5n4 ) ( * Nl2arg42 lam5n5 ) ( * Nl2arg43 lam5n6 ) ) 0 ) ( = ( + ( * ( - 1 ) lam5n0 ) ( * 1 lam5n1 ) ( * UndefCntr1_undef13 lam5n3 ) ( - ( + 0 ( * Nl2arg11 1 ) ) ) ) 0 ) ( = ( + ( * UndefCntr1_undef14 lam5n3 ) ( - ( + 0 ( * Nl2arg21 1 ) ) ) ) 0 ) ( = ( + ( * UndefCntr1_undef15 lam5n3 ) ( - ( + 0 ( * Nl2arg31 1 ) ) ) ) 0 ) ( = ( + ( * UndefCntr1_undef16 lam5n3 ) ( - ( + 0 ( * Nl2arg41 1 ) ) ) ) 0 ) ) ))
(assert ( or ( and ( >= lam4n0 0 ) ( >= lam4n1 0 ) ( >= lam4n2 0 ) ( >= lam4n3 0 ) ( >= lam4n4 0 ) ( >= lam4n5 0 ) ( >= lam4n6 0 ) ( > ( + ( * 2 lam4n1 ) ( * 3 lam4n2 ) ( * UndefCntr1_CT lam4n3 ) ( * Nl2CT1 lam4n4 ) ( * Nl2CT2 lam4n5 ) ( * Nl2CT3 lam4n6 ) ( - 1 ) ) 0 ) ( = ( + ( * ( - 1 ) lam4n1 ) ( * ( - 1 ) lam4n2 ) ( * UndefCntr1_arg1 lam4n3 ) ( * Nl2arg11 lam4n4 ) ( * Nl2arg12 lam4n5 ) ( * Nl2arg13 lam4n6 ) ) 0 ) ( = ( + ( * UndefCntr1_arg2 lam4n3 ) ( * Nl2arg21 lam4n4 ) ( * Nl2arg22 lam4n5 ) ( * Nl2arg23 lam4n6 ) ) 0 ) ( = ( + ( * UndefCntr1_arg3 lam4n3 ) ( * Nl2arg31 lam4n4 ) ( * Nl2arg32 lam4n5 ) ( * Nl2arg33 lam4n6 ) ) 0 ) ( = ( + ( * UndefCntr1_arg4 lam4n3 ) ( * Nl2arg41 lam4n4 ) ( * Nl2arg42 lam4n5 ) ( * Nl2arg43 lam4n6 ) ) 0 ) ( = ( + ( * ( - 1 ) lam4n0 ) ( * 1 lam4n1 ) ( * UndefCntr1_undef13 lam4n3 ) ) 0 ) ( = ( * UndefCntr1_undef14 lam4n3 ) 0 ) ( = ( * UndefCntr1_undef15 lam4n3 ) 0 ) ( = ( * UndefCntr1_undef16 lam4n3 ) 0 ) ) ( and ( >= lam6n0 0 ) ( >= lam6n1 0 ) ( >= lam6n2 0 ) ( >= lam6n3 0 ) ( >= lam6n4 0 ) ( >= lam6n5 0 ) ( >= lam6n6 0 ) ( > ( + ( * 2 lam6n1 ) ( * 3 lam6n2 ) ( * UndefCntr1_CT lam6n3 ) ( * Nl2CT1 lam6n4 ) ( * Nl2CT2 lam6n5 ) ( * Nl2CT3 lam6n6 ) ( - 1 ( + ( + ( + ( + Nl2CT2 ( * Nl2arg12 0 ) ) ( * Nl2arg22 0 ) ) ( * Nl2arg32 0 ) ) ( * Nl2arg42 0 ) ) ) ) 0 ) ( = ( + ( * ( - 1 ) lam6n1 ) ( * ( - 1 ) lam6n2 ) ( * UndefCntr1_arg1 lam6n3 ) ( * Nl2arg11 lam6n4 ) ( * Nl2arg12 lam6n5 ) ( * Nl2arg13 lam6n6 ) ) 0 ) ( = ( + ( * UndefCntr1_arg2 lam6n3 ) ( * Nl2arg21 lam6n4 ) ( * Nl2arg22 lam6n5 ) ( * Nl2arg23 lam6n6 ) ) 0 ) ( = ( + ( * UndefCntr1_arg3 lam6n3 ) ( * Nl2arg31 lam6n4 ) ( * Nl2arg32 lam6n5 ) ( * Nl2arg33 lam6n6 ) ) 0 ) ( = ( + ( * UndefCntr1_arg4 lam6n3 ) ( * Nl2arg41 lam6n4 ) ( * Nl2arg42 lam6n5 ) ( * Nl2arg43 lam6n6 ) ) 0 ) ( = ( + ( * ( - 1 ) lam6n0 ) ( * 1 lam6n1 ) ( * UndefCntr1_undef13 lam6n3 ) ( - ( + 0 ( * Nl2arg12 1 ) ) ) ) 0 ) ( = ( + ( * UndefCntr1_undef14 lam6n3 ) ( - ( + 0 ( * Nl2arg22 1 ) ) ) ) 0 ) ( = ( + ( * UndefCntr1_undef15 lam6n3 ) ( - ( + 0 ( * Nl2arg32 1 ) ) ) ) 0 ) ( = ( + ( * UndefCntr1_undef16 lam6n3 ) ( - ( + 0 ( * Nl2arg42 1 ) ) ) ) 0 ) ) ))
(assert ( or ( and ( >= lam4n0 0 ) ( >= lam4n1 0 ) ( >= lam4n2 0 ) ( >= lam4n3 0 ) ( >= lam4n4 0 ) ( >= lam4n5 0 ) ( >= lam4n6 0 ) ( > ( + ( * 2 lam4n1 ) ( * 3 lam4n2 ) ( * UndefCntr1_CT lam4n3 ) ( * Nl2CT1 lam4n4 ) ( * Nl2CT2 lam4n5 ) ( * Nl2CT3 lam4n6 ) ( - 1 ) ) 0 ) ( = ( + ( * ( - 1 ) lam4n1 ) ( * ( - 1 ) lam4n2 ) ( * UndefCntr1_arg1 lam4n3 ) ( * Nl2arg11 lam4n4 ) ( * Nl2arg12 lam4n5 ) ( * Nl2arg13 lam4n6 ) ) 0 ) ( = ( + ( * UndefCntr1_arg2 lam4n3 ) ( * Nl2arg21 lam4n4 ) ( * Nl2arg22 lam4n5 ) ( * Nl2arg23 lam4n6 ) ) 0 ) ( = ( + ( * UndefCntr1_arg3 lam4n3 ) ( * Nl2arg31 lam4n4 ) ( * Nl2arg32 lam4n5 ) ( * Nl2arg33 lam4n6 ) ) 0 ) ( = ( + ( * UndefCntr1_arg4 lam4n3 ) ( * Nl2arg41 lam4n4 ) ( * Nl2arg42 lam4n5 ) ( * Nl2arg43 lam4n6 ) ) 0 ) ( = ( + ( * ( - 1 ) lam4n0 ) ( * 1 lam4n1 ) ( * UndefCntr1_undef13 lam4n3 ) ) 0 ) ( = ( * UndefCntr1_undef14 lam4n3 ) 0 ) ( = ( * UndefCntr1_undef15 lam4n3 ) 0 ) ( = ( * UndefCntr1_undef16 lam4n3 ) 0 ) ) ( and ( >= lam7n0 0 ) ( >= lam7n1 0 ) ( >= lam7n2 0 ) ( >= lam7n3 0 ) ( >= lam7n4 0 ) ( >= lam7n5 0 ) ( >= lam7n6 0 ) ( > ( + ( * 2 lam7n1 ) ( * 3 lam7n2 ) ( * UndefCntr1_CT lam7n3 ) ( * Nl2CT1 lam7n4 ) ( * Nl2CT2 lam7n5 ) ( * Nl2CT3 lam7n6 ) ( - 1 ( + ( + ( + ( + Nl2CT3 ( * Nl2arg13 0 ) ) ( * Nl2arg23 0 ) ) ( * Nl2arg33 0 ) ) ( * Nl2arg43 0 ) ) ) ) 0 ) ( = ( + ( * ( - 1 ) lam7n1 ) ( * ( - 1 ) lam7n2 ) ( * UndefCntr1_arg1 lam7n3 ) ( * Nl2arg11 lam7n4 ) ( * Nl2arg12 lam7n5 ) ( * Nl2arg13 lam7n6 ) ) 0 ) ( = ( + ( * UndefCntr1_arg2 lam7n3 ) ( * Nl2arg21 lam7n4 ) ( * Nl2arg22 lam7n5 ) ( * Nl2arg23 lam7n6 ) ) 0 ) ( = ( + ( * UndefCntr1_arg3 lam7n3 ) ( * Nl2arg31 lam7n4 ) ( * Nl2arg32 lam7n5 ) ( * Nl2arg33 lam7n6 ) ) 0 ) ( = ( + ( * UndefCntr1_arg4 lam7n3 ) ( * Nl2arg41 lam7n4 ) ( * Nl2arg42 lam7n5 ) ( * Nl2arg43 lam7n6 ) ) 0 ) ( = ( + ( * ( - 1 ) lam7n0 ) ( * 1 lam7n1 ) ( * UndefCntr1_undef13 lam7n3 ) ( - ( + 0 ( * Nl2arg13 1 ) ) ) ) 0 ) ( = ( + ( * UndefCntr1_undef14 lam7n3 ) ( - ( + 0 ( * Nl2arg23 1 ) ) ) ) 0 ) ( = ( + ( * UndefCntr1_undef15 lam7n3 ) ( - ( + 0 ( * Nl2arg33 1 ) ) ) ) 0 ) ( = ( + ( * UndefCntr1_undef16 lam7n3 ) ( - ( + 0 ( * Nl2arg43 1 ) ) ) ) 0 ) ) ))
(assert ( or ( and ( >= lam8n0 0 ) ( >= lam8n1 0 ) ( >= lam8n2 0 ) ( >= lam8n3 0 ) ( >= lam8n4 0 ) ( >= lam8n5 0 ) ( >= lam8n6 0 ) ( > ( + ( * 1 lam8n0 ) ( * 3 lam8n2 ) ( * UndefCntr2_CT lam8n3 ) ( * Nl2CT1 lam8n4 ) ( * Nl2CT2 lam8n5 ) ( * Nl2CT3 lam8n6 ) ( - 1 ) ) 0 ) ( = ( + ( * ( - 1 ) lam8n1 ) ( * ( - 1 ) lam8n2 ) ( * UndefCntr2_arg1 lam8n3 ) ( * Nl2arg11 lam8n4 ) ( * Nl2arg12 lam8n5 ) ( * Nl2arg13 lam8n6 ) ) 0 ) ( = ( + ( * UndefCntr2_arg2 lam8n3 ) ( * Nl2arg21 lam8n4 ) ( * Nl2arg22 lam8n5 ) ( * Nl2arg23 lam8n6 ) ) 0 ) ( = ( + ( * UndefCntr2_arg3 lam8n3 ) ( * Nl2arg31 lam8n4 ) ( * Nl2arg32 lam8n5 ) ( * Nl2arg33 lam8n6 ) ) 0 ) ( = ( + ( * UndefCntr2_arg4 lam8n3 ) ( * Nl2arg41 lam8n4 ) ( * Nl2arg42 lam8n5 ) ( * Nl2arg43 lam8n6 ) ) 0 ) ( = ( + ( * ( - 1 ) lam8n0 ) ( * 1 lam8n1 ) ( * UndefCntr2_undef17 lam8n3 ) ) 0 ) ( = ( * UndefCntr2_undef18 lam8n3 ) 0 ) ( = ( * UndefCntr2_undef19 lam8n3 ) 0 ) ( = ( * UndefCntr2_undef20 lam8n3 ) 0 ) ) ( and ( >= lam9n0 0 ) ( >= lam9n1 0 ) ( >= lam9n2 0 ) ( >= lam9n3 0 ) ( >= lam9n4 0 ) ( >= lam9n5 0 ) ( >= lam9n6 0 ) ( > ( + ( * 1 lam9n0 ) ( * 3 lam9n2 ) ( * UndefCntr2_CT lam9n3 ) ( * Nl2CT1 lam9n4 ) ( * Nl2CT2 lam9n5 ) ( * Nl2CT3 lam9n6 ) ( - 1 ( + ( + ( + ( + Nl2CT1 ( * Nl2arg11 0 ) ) ( * Nl2arg21 0 ) ) ( * Nl2arg31 0 ) ) ( * Nl2arg41 0 ) ) ) ) 0 ) ( = ( + ( * ( - 1 ) lam9n1 ) ( * ( - 1 ) lam9n2 ) ( * UndefCntr2_arg1 lam9n3 ) ( * Nl2arg11 lam9n4 ) ( * Nl2arg12 lam9n5 ) ( * Nl2arg13 lam9n6 ) ) 0 ) ( = ( + ( * UndefCntr2_arg2 lam9n3 ) ( * Nl2arg21 lam9n4 ) ( * Nl2arg22 lam9n5 ) ( * Nl2arg23 lam9n6 ) ) 0 ) ( = ( + ( * UndefCntr2_arg3 lam9n3 ) ( * Nl2arg31 lam9n4 ) ( * Nl2arg32 lam9n5 ) ( * Nl2arg33 lam9n6 ) ) 0 ) ( = ( + ( * UndefCntr2_arg4 lam9n3 ) ( * Nl2arg41 lam9n4 ) ( * Nl2arg42 lam9n5 ) ( * Nl2arg43 lam9n6 ) ) 0 ) ( = ( + ( * ( - 1 ) lam9n0 ) ( * 1 lam9n1 ) ( * UndefCntr2_undef17 lam9n3 ) ( - ( + 0 ( * Nl2arg11 1 ) ) ) ) 0 ) ( = ( + ( * UndefCntr2_undef18 lam9n3 ) ( - ( + 0 ( * Nl2arg21 1 ) ) ) ) 0 ) ( = ( + ( * UndefCntr2_undef19 lam9n3 ) ( - ( + 0 ( * Nl2arg31 1 ) ) ) ) 0 ) ( = ( + ( * UndefCntr2_undef20 lam9n3 ) ( - ( + 0 ( * Nl2arg41 1 ) ) ) ) 0 ) ) ))
(assert ( or ( and ( >= lam8n0 0 ) ( >= lam8n1 0 ) ( >= lam8n2 0 ) ( >= lam8n3 0 ) ( >= lam8n4 0 ) ( >= lam8n5 0 ) ( >= lam8n6 0 ) ( > ( + ( * 1 lam8n0 ) ( * 3 lam8n2 ) ( * UndefCntr2_CT lam8n3 ) ( * Nl2CT1 lam8n4 ) ( * Nl2CT2 lam8n5 ) ( * Nl2CT3 lam8n6 ) ( - 1 ) ) 0 ) ( = ( + ( * ( - 1 ) lam8n1 ) ( * ( - 1 ) lam8n2 ) ( * UndefCntr2_arg1 lam8n3 ) ( * Nl2arg11 lam8n4 ) ( * Nl2arg12 lam8n5 ) ( * Nl2arg13 lam8n6 ) ) 0 ) ( = ( + ( * UndefCntr2_arg2 lam8n3 ) ( * Nl2arg21 lam8n4 ) ( * Nl2arg22 lam8n5 ) ( * Nl2arg23 lam8n6 ) ) 0 ) ( = ( + ( * UndefCntr2_arg3 lam8n3 ) ( * Nl2arg31 lam8n4 ) ( * Nl2arg32 lam8n5 ) ( * Nl2arg33 lam8n6 ) ) 0 ) ( = ( + ( * UndefCntr2_arg4 lam8n3 ) ( * Nl2arg41 lam8n4 ) ( * Nl2arg42 lam8n5 ) ( * Nl2arg43 lam8n6 ) ) 0 ) ( = ( + ( * ( - 1 ) lam8n0 ) ( * 1 lam8n1 ) ( * UndefCntr2_undef17 lam8n3 ) ) 0 ) ( = ( * UndefCntr2_undef18 lam8n3 ) 0 ) ( = ( * UndefCntr2_undef19 lam8n3 ) 0 ) ( = ( * UndefCntr2_undef20 lam8n3 ) 0 ) ) ( and ( >= lam10n0 0 ) ( >= lam10n1 0 ) ( >= lam10n2 0 ) ( >= lam10n3 0 ) ( >= lam10n4 0 ) ( >= lam10n5 0 ) ( >= lam10n6 0 ) ( > ( + ( * 1 lam10n0 ) ( * 3 lam10n2 ) ( * UndefCntr2_CT lam10n3 ) ( * Nl2CT1 lam10n4 ) ( * Nl2CT2 lam10n5 ) ( * Nl2CT3 lam10n6 ) ( - 1 ( + ( + ( + ( + Nl2CT2 ( * Nl2arg12 0 ) ) ( * Nl2arg22 0 ) ) ( * Nl2arg32 0 ) ) ( * Nl2arg42 0 ) ) ) ) 0 ) ( = ( + ( * ( - 1 ) lam10n1 ) ( * ( - 1 ) lam10n2 ) ( * UndefCntr2_arg1 lam10n3 ) ( * Nl2arg11 lam10n4 ) ( * Nl2arg12 lam10n5 ) ( * Nl2arg13 lam10n6 ) ) 0 ) ( = ( + ( * UndefCntr2_arg2 lam10n3 ) ( * Nl2arg21 lam10n4 ) ( * Nl2arg22 lam10n5 ) ( * Nl2arg23 lam10n6 ) ) 0 ) ( = ( + ( * UndefCntr2_arg3 lam10n3 ) ( * Nl2arg31 lam10n4 ) ( * Nl2arg32 lam10n5 ) ( * Nl2arg33 lam10n6 ) ) 0 ) ( = ( + ( * UndefCntr2_arg4 lam10n3 ) ( * Nl2arg41 lam10n4 ) ( * Nl2arg42 lam10n5 ) ( * Nl2arg43 lam10n6 ) ) 0 ) ( = ( + ( * ( - 1 ) lam10n0 ) ( * 1 lam10n1 ) ( * UndefCntr2_undef17 lam10n3 ) ( - ( + 0 ( * Nl2arg12 1 ) ) ) ) 0 ) ( = ( + ( * UndefCntr2_undef18 lam10n3 ) ( - ( + 0 ( * Nl2arg22 1 ) ) ) ) 0 ) ( = ( + ( * UndefCntr2_undef19 lam10n3 ) ( - ( + 0 ( * Nl2arg32 1 ) ) ) ) 0 ) ( = ( + ( * UndefCntr2_undef20 lam10n3 ) ( - ( + 0 ( * Nl2arg42 1 ) ) ) ) 0 ) ) ))
(assert ( or ( and ( >= lam8n0 0 ) ( >= lam8n1 0 ) ( >= lam8n2 0 ) ( >= lam8n3 0 ) ( >= lam8n4 0 ) ( >= lam8n5 0 ) ( >= lam8n6 0 ) ( > ( + ( * 1 lam8n0 ) ( * 3 lam8n2 ) ( * UndefCntr2_CT lam8n3 ) ( * Nl2CT1 lam8n4 ) ( * Nl2CT2 lam8n5 ) ( * Nl2CT3 lam8n6 ) ( - 1 ) ) 0 ) ( = ( + ( * ( - 1 ) lam8n1 ) ( * ( - 1 ) lam8n2 ) ( * UndefCntr2_arg1 lam8n3 ) ( * Nl2arg11 lam8n4 ) ( * Nl2arg12 lam8n5 ) ( * Nl2arg13 lam8n6 ) ) 0 ) ( = ( + ( * UndefCntr2_arg2 lam8n3 ) ( * Nl2arg21 lam8n4 ) ( * Nl2arg22 lam8n5 ) ( * Nl2arg23 lam8n6 ) ) 0 ) ( = ( + ( * UndefCntr2_arg3 lam8n3 ) ( * Nl2arg31 lam8n4 ) ( * Nl2arg32 lam8n5 ) ( * Nl2arg33 lam8n6 ) ) 0 ) ( = ( + ( * UndefCntr2_arg4 lam8n3 ) ( * Nl2arg41 lam8n4 ) ( * Nl2arg42 lam8n5 ) ( * Nl2arg43 lam8n6 ) ) 0 ) ( = ( + ( * ( - 1 ) lam8n0 ) ( * 1 lam8n1 ) ( * UndefCntr2_undef17 lam8n3 ) ) 0 ) ( = ( * UndefCntr2_undef18 lam8n3 ) 0 ) ( = ( * UndefCntr2_undef19 lam8n3 ) 0 ) ( = ( * UndefCntr2_undef20 lam8n3 ) 0 ) ) ( and ( >= lam11n0 0 ) ( >= lam11n1 0 ) ( >= lam11n2 0 ) ( >= lam11n3 0 ) ( >= lam11n4 0 ) ( >= lam11n5 0 ) ( >= lam11n6 0 ) ( > ( + ( * 1 lam11n0 ) ( * 3 lam11n2 ) ( * UndefCntr2_CT lam11n3 ) ( * Nl2CT1 lam11n4 ) ( * Nl2CT2 lam11n5 ) ( * Nl2CT3 lam11n6 ) ( - 1 ( + ( + ( + ( + Nl2CT3 ( * Nl2arg13 0 ) ) ( * Nl2arg23 0 ) ) ( * Nl2arg33 0 ) ) ( * Nl2arg43 0 ) ) ) ) 0 ) ( = ( + ( * ( - 1 ) lam11n1 ) ( * ( - 1 ) lam11n2 ) ( * UndefCntr2_arg1 lam11n3 ) ( * Nl2arg11 lam11n4 ) ( * Nl2arg12 lam11n5 ) ( * Nl2arg13 lam11n6 ) ) 0 ) ( = ( + ( * UndefCntr2_arg2 lam11n3 ) ( * Nl2arg21 lam11n4 ) ( * Nl2arg22 lam11n5 ) ( * Nl2arg23 lam11n6 ) ) 0 ) ( = ( + ( * UndefCntr2_arg3 lam11n3 ) ( * Nl2arg31 lam11n4 ) ( * Nl2arg32 lam11n5 ) ( * Nl2arg33 lam11n6 ) ) 0 ) ( = ( + ( * UndefCntr2_arg4 lam11n3 ) ( * Nl2arg41 lam11n4 ) ( * Nl2arg42 lam11n5 ) ( * Nl2arg43 lam11n6 ) ) 0 ) ( = ( + ( * ( - 1 ) lam11n0 ) ( * 1 lam11n1 ) ( * UndefCntr2_undef17 lam11n3 ) ( - ( + 0 ( * Nl2arg13 1 ) ) ) ) 0 ) ( = ( + ( * UndefCntr2_undef18 lam11n3 ) ( - ( + 0 ( * Nl2arg23 1 ) ) ) ) 0 ) ( = ( + ( * UndefCntr2_undef19 lam11n3 ) ( - ( + 0 ( * Nl2arg33 1 ) ) ) ) 0 ) ( = ( + ( * UndefCntr2_undef20 lam11n3 ) ( - ( + 0 ( * Nl2arg43 1 ) ) ) ) 0 ) ) ))
(assert ( and ( <= ( + Nl2CT1 ( * Nl2arg11 FV_arg1_3 ) ( * Nl2arg21 FV_arg2_3 ) ( * Nl2arg31 FV_arg3_3 ) ( * Nl2arg41 FV_arg4_3 ) ) 0 ) ( <= ( + Nl2CT2 ( * Nl2arg12 FV_arg1_3 ) ( * Nl2arg22 FV_arg2_3 ) ( * Nl2arg32 FV_arg3_3 ) ( * Nl2arg42 FV_arg4_3 ) ) 0 ) ( <= ( + Nl2CT3 ( * Nl2arg13 FV_arg1_3 ) ( * Nl2arg23 FV_arg2_3 ) ( * Nl2arg33 FV_arg3_3 ) ( * Nl2arg43 FV_arg4_3 ) ) 0 ) ))
(assert ( or ( not ( = UndefCntr0_arg1 0 ) ) ( not ( = UndefCntr0_arg2 0 ) ) ( not ( = UndefCntr0_arg3 0 ) ) ( not ( = UndefCntr0_arg4 0 ) ) ( not ( = UndefCntr0_undef9 0 ) ) ( not ( = UndefCntr0_undef10 0 ) ) ( not ( = UndefCntr0_undef11 0 ) ) ( not ( = UndefCntr0_undef12 0 ) ) ( = UndefCntr0_CT 0 ) ))
(assert ( or ( and ( = UndefCntr0_arg1 0 ) ( = UndefCntr0_arg2 0 ) ( = UndefCntr0_arg3 0 ) ( = UndefCntr0_arg4 0 ) ) ( or ( not ( = UndefCntr0_undef9 0 ) ) ( not ( = UndefCntr0_undef10 0 ) ) ( not ( = UndefCntr0_undef11 0 ) ) ( not ( = UndefCntr0_undef12 0 ) ) ) ))
(assert ( or ( not ( = UndefCntr1_arg1 0 ) ) ( not ( = UndefCntr1_arg2 0 ) ) ( not ( = UndefCntr1_arg3 0 ) ) ( not ( = UndefCntr1_arg4 0 ) ) ( not ( = UndefCntr1_undef13 0 ) ) ( not ( = UndefCntr1_undef14 0 ) ) ( not ( = UndefCntr1_undef15 0 ) ) ( not ( = UndefCntr1_undef16 0 ) ) ( = UndefCntr1_CT 0 ) ))
(assert ( or ( and ( = UndefCntr1_arg1 0 ) ( = UndefCntr1_arg2 0 ) ( = UndefCntr1_arg3 0 ) ( = UndefCntr1_arg4 0 ) ) ( or ( not ( = UndefCntr1_undef13 0 ) ) ( not ( = UndefCntr1_undef14 0 ) ) ( not ( = UndefCntr1_undef15 0 ) ) ( not ( = UndefCntr1_undef16 0 ) ) ) ))
(assert ( or ( not ( = UndefCntr2_arg1 0 ) ) ( not ( = UndefCntr2_arg2 0 ) ) ( not ( = UndefCntr2_arg3 0 ) ) ( not ( = UndefCntr2_arg4 0 ) ) ( not ( = UndefCntr2_undef17 0 ) ) ( not ( = UndefCntr2_undef18 0 ) ) ( not ( = UndefCntr2_undef19 0 ) ) ( not ( = UndefCntr2_undef20 0 ) ) ( = UndefCntr2_CT 0 ) ))
(assert ( or ( and ( = UndefCntr2_arg1 0 ) ( = UndefCntr2_arg2 0 ) ( = UndefCntr2_arg3 0 ) ( = UndefCntr2_arg4 0 ) ) ( or ( not ( = UndefCntr2_undef17 0 ) ) ( not ( = UndefCntr2_undef18 0 ) ) ( not ( = UndefCntr2_undef19 0 ) ) ( not ( = UndefCntr2_undef20 0 ) ) ) ))
(assert ( or ( and ( >= lam15n0 0 ) ( >= lam15n1 0 ) ( >= lam15n2 0 ) ( >= lam15n3 0 ) ( > ( + ( * 3 lam15n0 ) ( * Nl2CT1 lam15n1 ) ( * Nl2CT2 lam15n2 ) ( * Nl2CT3 lam15n3 ) ( - 1 ) ) 0 ) ( = ( + ( * ( - 1 ) lam15n0 ) ( * Nl2arg11 lam15n1 ) ( * Nl2arg12 lam15n2 ) ( * Nl2arg13 lam15n3 ) ) 0 ) ( = ( + ( * Nl2arg21 lam15n1 ) ( * Nl2arg22 lam15n2 ) ( * Nl2arg23 lam15n3 ) ) 0 ) ( = ( + ( * Nl2arg31 lam15n1 ) ( * Nl2arg32 lam15n2 ) ( * Nl2arg33 lam15n3 ) ) 0 ) ( = ( + ( * Nl2arg41 lam15n1 ) ( * Nl2arg42 lam15n2 ) ( * Nl2arg43 lam15n3 ) ) 0 ) ) ( and ( and ( >= lam16n0 0 ) ( >= lam16n1 0 ) ( >= lam16n2 0 ) ( >= lam16n3 0 ) ( > ( + ( * 3 lam16n0 ) ( * Nl2CT1 lam16n1 ) ( * Nl2CT2 lam16n2 ) ( * Nl2CT3 lam16n3 ) ( - 1 ( + 0 ( * ( - 1 ) UndefDef0undef9_CT ) ) ) ) 0 ) ( = ( + ( * ( - 1 ) lam16n0 ) ( * Nl2arg11 lam16n1 ) ( * Nl2arg12 lam16n2 ) ( * Nl2arg13 lam16n3 ) ( - ( * UndefDef0undef9_arg1 ( - 1 ) ) ) ) 0 ) ( = ( + ( * Nl2arg21 lam16n1 ) ( * Nl2arg22 lam16n2 ) ( * Nl2arg23 lam16n3 ) ( - ( * UndefDef0undef9_arg2 ( - 1 ) ) ) ) 0 ) ( = ( + ( * Nl2arg31 lam16n1 ) ( * Nl2arg32 lam16n2 ) ( * Nl2arg33 lam16n3 ) ( - ( * UndefDef0undef9_arg3 ( - 1 ) ) ) ) 0 ) ( = ( + ( * Nl2arg41 lam16n1 ) ( * Nl2arg42 lam16n2 ) ( * Nl2arg43 lam16n3 ) ( - ( * UndefDef0undef9_arg4 ( - 1 ) ) ) ) 0 ) ) ( and ( >= lam17n0 0 ) ( >= lam17n1 0 ) ( >= lam17n2 0 ) ( >= lam17n3 0 ) ( > ( + ( * 3 lam17n0 ) ( * Nl2CT1 lam17n1 ) ( * Nl2CT2 lam17n2 ) ( * Nl2CT3 lam17n3 ) ( - 1 ( + ( + 2 0 ) ( * 1 UndefDef0undef9_CT ) ) ) ) 0 ) ( = ( + ( * ( - 1 ) lam17n0 ) ( * Nl2arg11 lam17n1 ) ( * Nl2arg12 lam17n2 ) ( * Nl2arg13 lam17n3 ) ( - ( + ( - 1 ) ( * UndefDef0undef9_arg1 1 ) ) ) ) 0 ) ( = ( + ( * Nl2arg21 lam17n1 ) ( * Nl2arg22 lam17n2 ) ( * Nl2arg23 lam17n3 ) ( - ( * UndefDef0undef9_arg2 1 ) ) ) 0 ) ( = ( + ( * Nl2arg31 lam17n1 ) ( * Nl2arg32 lam17n2 ) ( * Nl2arg33 lam17n3 ) ( - ( * UndefDef0undef9_arg3 1 ) ) ) 0 ) ( = ( + ( * Nl2arg41 lam17n1 ) ( * Nl2arg42 lam17n2 ) ( * Nl2arg43 lam17n3 ) ( - ( * UndefDef0undef9_arg4 1 ) ) ) 0 ) ) ( or ( = UndefCntr0_undef9 0 ) ( and ( >= lam18n0 0 ) ( >= lam18n1 0 ) ( >= lam18n2 0 ) ( >= lam18n3 0 ) ( > ( + ( * 3 lam18n0 ) ( * Nl2CT1 lam18n1 ) ( * Nl2CT2 lam18n2 ) ( * Nl2CT3 lam18n3 ) ( - 1 ( + ( + ( + ( + ( + ( + ( + ( + UndefCntr0_CT 0 ) 0 ) 0 ) 0 ) ( * UndefCntr0_undef9 UndefDef0undef9_CT ) ) 0 ) 0 ) 0 ) ) ) 0 ) ( = ( + ( * ( - 1 ) lam18n0 ) ( * Nl2arg11 lam18n1 ) ( * Nl2arg12 lam18n2 ) ( * Nl2arg13 lam18n3 ) ( - ( + UndefCntr0_arg1 ( * UndefDef0undef9_arg1 UndefCntr0_undef9 ) ) ) ) 0 ) ( = ( + ( * Nl2arg21 lam18n1 ) ( * Nl2arg22 lam18n2 ) ( * Nl2arg23 lam18n3 ) ( - ( + UndefCntr0_arg2 ( * UndefDef0undef9_arg2 UndefCntr0_undef9 ) ) ) ) 0 ) ( = ( + ( * Nl2arg31 lam18n1 ) ( * Nl2arg32 lam18n2 ) ( * Nl2arg33 lam18n3 ) ( - ( + UndefCntr0_arg3 ( * UndefDef0undef9_arg3 UndefCntr0_undef9 ) ) ) ) 0 ) ( = ( + ( * Nl2arg41 lam18n1 ) ( * Nl2arg42 lam18n2 ) ( * Nl2arg43 lam18n3 ) ( - ( + UndefCntr0_arg4 ( * UndefDef0undef9_arg4 UndefCntr0_undef9 ) ) ) ) 0 ) ( = ( - UndefCntr0_undef10 ) 0 ) ( = ( - UndefCntr0_undef11 ) 0 ) ( = ( - UndefCntr0_undef12 ) 0 ) ) ) ) ))
(assert ( or ( and ( >= lam19n0 0 ) ( >= lam19n1 0 ) ( >= lam19n2 0 ) ( >= lam19n3 0 ) ( > ( + ( * 3 lam19n0 ) ( * Nl2CT1 lam19n1 ) ( * Nl2CT2 lam19n2 ) ( * Nl2CT3 lam19n3 ) ( - 1 ) ) 0 ) ( = ( + ( * ( - 1 ) lam19n0 ) ( * Nl2arg11 lam19n1 ) ( * Nl2arg12 lam19n2 ) ( * Nl2arg13 lam19n3 ) ) 0 ) ( = ( + ( * Nl2arg21 lam19n1 ) ( * Nl2arg22 lam19n2 ) ( * Nl2arg23 lam19n3 ) ) 0 ) ( = ( + ( * Nl2arg31 lam19n1 ) ( * Nl2arg32 lam19n2 ) ( * Nl2arg33 lam19n3 ) ) 0 ) ( = ( + ( * Nl2arg41 lam19n1 ) ( * Nl2arg42 lam19n2 ) ( * Nl2arg43 lam19n3 ) ) 0 ) ) ( and ( and ( >= lam20n0 0 ) ( >= lam20n1 0 ) ( >= lam20n2 0 ) ( >= lam20n3 0 ) ( > ( + ( * 3 lam20n0 ) ( * Nl2CT1 lam20n1 ) ( * Nl2CT2 lam20n2 ) ( * Nl2CT3 lam20n3 ) ( - 1 ( + 0 ( * ( - 1 ) UndefDef1undef13_CT ) ) ) ) 0 ) ( = ( + ( * ( - 1 ) lam20n0 ) ( * Nl2arg11 lam20n1 ) ( * Nl2arg12 lam20n2 ) ( * Nl2arg13 lam20n3 ) ( - ( * UndefDef1undef13_arg1 ( - 1 ) ) ) ) 0 ) ( = ( + ( * Nl2arg21 lam20n1 ) ( * Nl2arg22 lam20n2 ) ( * Nl2arg23 lam20n3 ) ( - ( * UndefDef1undef13_arg2 ( - 1 ) ) ) ) 0 ) ( = ( + ( * Nl2arg31 lam20n1 ) ( * Nl2arg32 lam20n2 ) ( * Nl2arg33 lam20n3 ) ( - ( * UndefDef1undef13_arg3 ( - 1 ) ) ) ) 0 ) ( = ( + ( * Nl2arg41 lam20n1 ) ( * Nl2arg42 lam20n2 ) ( * Nl2arg43 lam20n3 ) ( - ( * UndefDef1undef13_arg4 ( - 1 ) ) ) ) 0 ) ) ( and ( >= lam21n0 0 ) ( >= lam21n1 0 ) ( >= lam21n2 0 ) ( >= lam21n3 0 ) ( > ( + ( * 3 lam21n0 ) ( * Nl2CT1 lam21n1 ) ( * Nl2CT2 lam21n2 ) ( * Nl2CT3 lam21n3 ) ( - 1 ( + ( + 2 0 ) ( * 1 UndefDef1undef13_CT ) ) ) ) 0 ) ( = ( + ( * ( - 1 ) lam21n0 ) ( * Nl2arg11 lam21n1 ) ( * Nl2arg12 lam21n2 ) ( * Nl2arg13 lam21n3 ) ( - ( + ( - 1 ) ( * UndefDef1undef13_arg1 1 ) ) ) ) 0 ) ( = ( + ( * Nl2arg21 lam21n1 ) ( * Nl2arg22 lam21n2 ) ( * Nl2arg23 lam21n3 ) ( - ( * UndefDef1undef13_arg2 1 ) ) ) 0 ) ( = ( + ( * Nl2arg31 lam21n1 ) ( * Nl2arg32 lam21n2 ) ( * Nl2arg33 lam21n3 ) ( - ( * UndefDef1undef13_arg3 1 ) ) ) 0 ) ( = ( + ( * Nl2arg41 lam21n1 ) ( * Nl2arg42 lam21n2 ) ( * Nl2arg43 lam21n3 ) ( - ( * UndefDef1undef13_arg4 1 ) ) ) 0 ) ) ( or ( = UndefCntr1_undef13 0 ) ( and ( >= lam22n0 0 ) ( >= lam22n1 0 ) ( >= lam22n2 0 ) ( >= lam22n3 0 ) ( > ( + ( * 3 lam22n0 ) ( * Nl2CT1 lam22n1 ) ( * Nl2CT2 lam22n2 ) ( * Nl2CT3 lam22n3 ) ( - 1 ( + ( + ( + ( + ( + ( + ( + ( + UndefCntr1_CT 0 ) 0 ) 0 ) 0 ) ( * UndefCntr1_undef13 UndefDef1undef13_CT ) ) 0 ) 0 ) 0 ) ) ) 0 ) ( = ( + ( * ( - 1 ) lam22n0 ) ( * Nl2arg11 lam22n1 ) ( * Nl2arg12 lam22n2 ) ( * Nl2arg13 lam22n3 ) ( - ( + UndefCntr1_arg1 ( * UndefDef1undef13_arg1 UndefCntr1_undef13 ) ) ) ) 0 ) ( = ( + ( * Nl2arg21 lam22n1 ) ( * Nl2arg22 lam22n2 ) ( * Nl2arg23 lam22n3 ) ( - ( + UndefCntr1_arg2 ( * UndefDef1undef13_arg2 UndefCntr1_undef13 ) ) ) ) 0 ) ( = ( + ( * Nl2arg31 lam22n1 ) ( * Nl2arg32 lam22n2 ) ( * Nl2arg33 lam22n3 ) ( - ( + UndefCntr1_arg3 ( * UndefDef1undef13_arg3 UndefCntr1_undef13 ) ) ) ) 0 ) ( = ( + ( * Nl2arg41 lam22n1 ) ( * Nl2arg42 lam22n2 ) ( * Nl2arg43 lam22n3 ) ( - ( + UndefCntr1_arg4 ( * UndefDef1undef13_arg4 UndefCntr1_undef13 ) ) ) ) 0 ) ( = ( - UndefCntr1_undef14 ) 0 ) ( = ( - UndefCntr1_undef15 ) 0 ) ( = ( - UndefCntr1_undef16 ) 0 ) ) ) ) ))
(assert ( or ( and ( >= lam23n0 0 ) ( >= lam23n1 0 ) ( >= lam23n2 0 ) ( >= lam23n3 0 ) ( > ( + ( * 3 lam23n0 ) ( * Nl2CT1 lam23n1 ) ( * Nl2CT2 lam23n2 ) ( * Nl2CT3 lam23n3 ) ( - 1 ) ) 0 ) ( = ( + ( * ( - 1 ) lam23n0 ) ( * Nl2arg11 lam23n1 ) ( * Nl2arg12 lam23n2 ) ( * Nl2arg13 lam23n3 ) ) 0 ) ( = ( + ( * Nl2arg21 lam23n1 ) ( * Nl2arg22 lam23n2 ) ( * Nl2arg23 lam23n3 ) ) 0 ) ( = ( + ( * Nl2arg31 lam23n1 ) ( * Nl2arg32 lam23n2 ) ( * Nl2arg33 lam23n3 ) ) 0 ) ( = ( + ( * Nl2arg41 lam23n1 ) ( * Nl2arg42 lam23n2 ) ( * Nl2arg43 lam23n3 ) ) 0 ) ) ( and ( and ( >= lam24n0 0 ) ( >= lam24n1 0 ) ( >= lam24n2 0 ) ( >= lam24n3 0 ) ( > ( + ( * 3 lam24n0 ) ( * Nl2CT1 lam24n1 ) ( * Nl2CT2 lam24n2 ) ( * Nl2CT3 lam24n3 ) ( - 1 ( + 1 ( * ( - 1 ) UndefDef2undef17_CT ) ) ) ) 0 ) ( = ( + ( * ( - 1 ) lam24n0 ) ( * Nl2arg11 lam24n1 ) ( * Nl2arg12 lam24n2 ) ( * Nl2arg13 lam24n3 ) ( - ( * UndefDef2undef17_arg1 ( - 1 ) ) ) ) 0 ) ( = ( + ( * Nl2arg21 lam24n1 ) ( * Nl2arg22 lam24n2 ) ( * Nl2arg23 lam24n3 ) ( - ( * UndefDef2undef17_arg2 ( - 1 ) ) ) ) 0 ) ( = ( + ( * Nl2arg31 lam24n1 ) ( * Nl2arg32 lam24n2 ) ( * Nl2arg33 lam24n3 ) ( - ( * UndefDef2undef17_arg3 ( - 1 ) ) ) ) 0 ) ( = ( + ( * Nl2arg41 lam24n1 ) ( * Nl2arg42 lam24n2 ) ( * Nl2arg43 lam24n3 ) ( - ( * UndefDef2undef17_arg4 ( - 1 ) ) ) ) 0 ) ) ( and ( >= lam25n0 0 ) ( >= lam25n1 0 ) ( >= lam25n2 0 ) ( >= lam25n3 0 ) ( > ( + ( * 3 lam25n0 ) ( * Nl2CT1 lam25n1 ) ( * Nl2CT2 lam25n2 ) ( * Nl2CT3 lam25n3 ) ( - 1 ( + ( + 0 0 ) ( * 1 UndefDef2undef17_CT ) ) ) ) 0 ) ( = ( + ( * ( - 1 ) lam25n0 ) ( * Nl2arg11 lam25n1 ) ( * Nl2arg12 lam25n2 ) ( * Nl2arg13 lam25n3 ) ( - ( + ( - 1 ) ( * UndefDef2undef17_arg1 1 ) ) ) ) 0 ) ( = ( + ( * Nl2arg21 lam25n1 ) ( * Nl2arg22 lam25n2 ) ( * Nl2arg23 lam25n3 ) ( - ( * UndefDef2undef17_arg2 1 ) ) ) 0 ) ( = ( + ( * Nl2arg31 lam25n1 ) ( * Nl2arg32 lam25n2 ) ( * Nl2arg33 lam25n3 ) ( - ( * UndefDef2undef17_arg3 1 ) ) ) 0 ) ( = ( + ( * Nl2arg41 lam25n1 ) ( * Nl2arg42 lam25n2 ) ( * Nl2arg43 lam25n3 ) ( - ( * UndefDef2undef17_arg4 1 ) ) ) 0 ) ) ( or ( = UndefCntr2_undef17 0 ) ( and ( >= lam26n0 0 ) ( >= lam26n1 0 ) ( >= lam26n2 0 ) ( >= lam26n3 0 ) ( > ( + ( * 3 lam26n0 ) ( * Nl2CT1 lam26n1 ) ( * Nl2CT2 lam26n2 ) ( * Nl2CT3 lam26n3 ) ( - 1 ( + ( + ( + ( + ( + ( + ( + ( + UndefCntr2_CT 0 ) 0 ) 0 ) 0 ) ( * UndefCntr2_undef17 UndefDef2undef17_CT ) ) 0 ) 0 ) 0 ) ) ) 0 ) ( = ( + ( * ( - 1 ) lam26n0 ) ( * Nl2arg11 lam26n1 ) ( * Nl2arg12 lam26n2 ) ( * Nl2arg13 lam26n3 ) ( - ( + UndefCntr2_arg1 ( * UndefDef2undef17_arg1 UndefCntr2_undef17 ) ) ) ) 0 ) ( = ( + ( * Nl2arg21 lam26n1 ) ( * Nl2arg22 lam26n2 ) ( * Nl2arg23 lam26n3 ) ( - ( + UndefCntr2_arg2 ( * UndefDef2undef17_arg2 UndefCntr2_undef17 ) ) ) ) 0 ) ( = ( + ( * Nl2arg31 lam26n1 ) ( * Nl2arg32 lam26n2 ) ( * Nl2arg33 lam26n3 ) ( - ( + UndefCntr2_arg3 ( * UndefDef2undef17_arg3 UndefCntr2_undef17 ) ) ) ) 0 ) ( = ( + ( * Nl2arg41 lam26n1 ) ( * Nl2arg42 lam26n2 ) ( * Nl2arg43 lam26n3 ) ( - ( + UndefCntr2_arg4 ( * UndefDef2undef17_arg4 UndefCntr2_undef17 ) ) ) ) 0 ) ( = ( - UndefCntr2_undef18 ) 0 ) ( = ( - UndefCntr2_undef19 ) 0 ) ( = ( - UndefCntr2_undef20 ) 0 ) ) ) ) ))
(assert ( and ( >= lam27n0 0 ) ( >= lam27n1 0 ) ( >= lam27n2 0 ) ( >= lam27n3 0 ) ( > ( + ( * ( - 2 ) lam27n0 ) ( * Nl2CT1 lam27n1 ) ( * Nl2CT2 lam27n2 ) ( * Nl2CT3 lam27n3 ) ( - 1 ) ) 0 ) ( = ( + ( * 1 lam27n0 ) ( * Nl2arg11 lam27n1 ) ( * Nl2arg12 lam27n2 ) ( * Nl2arg13 lam27n3 ) ) 0 ) ( = ( + ( * Nl2arg21 lam27n1 ) ( * Nl2arg22 lam27n2 ) ( * Nl2arg23 lam27n3 ) ) 0 ) ( = ( + ( * Nl2arg31 lam27n1 ) ( * Nl2arg32 lam27n2 ) ( * Nl2arg33 lam27n3 ) ) 0 ) ( = ( + ( * Nl2arg41 lam27n1 ) ( * Nl2arg42 lam27n2 ) ( * Nl2arg43 lam27n3 ) ) 0 ) ))
(assert ( and ( and ( <= ( + Nl2CT1 ( * Nl2arg11 FV_arg1_4 ) ( * Nl2arg21 FV_arg2_4 ) ( * Nl2arg31 FV_arg3_4 ) ( * Nl2arg41 FV_arg4_4 ) ) 0 ) ( <= ( + Nl2CT2 ( * Nl2arg12 FV_arg1_4 ) ( * Nl2arg22 FV_arg2_4 ) ( * Nl2arg32 FV_arg3_4 ) ( * Nl2arg42 FV_arg4_4 ) ) 0 ) ( <= ( + Nl2CT3 ( * Nl2arg13 FV_arg1_4 ) ( * Nl2arg23 FV_arg2_4 ) ( * Nl2arg33 FV_arg3_4 ) ( * Nl2arg43 FV_arg4_4 ) ) 0 ) ) ( or ( and ( <= ( * ( - 1 ) FV_undef9_4 ) 0 ) ( <= ( + 2 FV_undef9_4 ( * ( - 1 ) FV_arg1_4 ) ) 0 ) ( <= ( + 3 ( * ( - 1 ) FV_arg1_4 ) ) 0 ) ) ( and ( <= ( * ( - 1 ) FV_undef13_4 ) 0 ) ( <= ( + 2 ( * ( - 1 ) FV_arg1_4 ) FV_undef13_4 ) 0 ) ( <= ( + 3 ( * ( - 1 ) FV_arg1_4 ) ) 0 ) ) ( and ( <= ( + 1 ( * ( - 1 ) FV_undef17_4 ) ) 0 ) ( <= ( + ( * ( - 1 ) FV_arg1_4 ) FV_undef17_4 ) 0 ) ( <= ( + 3 ( * ( - 1 ) FV_arg1_4 ) ) 0 ) ) ) ))
(check-sat)
(exit)
